(set-option :print-success true)
(set-option :produce-assignments true)
(set-option :produce-proofs true)
(set-logic QF_UF)
(declare-sort A2Bool 0)
(declare-sort listBool 0)
(declare-sort listA 0)
(declare-fun map (A2Bool listA ) listBool)
(declare-fun cons (Bool listBool ) listBool)
(declare-fun l () listA)
(declare-fun false_var () Bool)
(declare-fun true_var () Bool)
(declare-fun g () A2Bool)
(declare-fun f () A2Bool)
(assert (not (= (cons true_var (map f l)) (cons false_var (map g l)))))
(check-sat)
(get-model)
